c "718315.clq"
p edge 100 1344
e 1 17
e 1 18
e 1 19
e 1 20
e 1 22
e 1 23
e 1 24
e 1 27
e 1 29
e 1 31
e 1 33
e 1 34
e 1 35
e 1 40
e 1 44
e 1 62
e 1 63
e 1 70
e 1 71
e 1 76
e 1 77
e 1 80
e 1 81
e 1 82
e 1 96
e 2 17
e 2 18
e 2 19
e 2 20
e 2 21
e 2 22
e 2 23
e 2 25
e 2 27
e 2 28
e 2 30
e 2 31
e 2 32
e 2 34
e 2 46
e 2 51
e 2 58
e 2 73
e 2 75
e 2 86
e 2 88
e 3 17
e 3 18
e 3 19
e 3 21
e 3 22
e 3 24
e 3 25
e 3 29
e 3 30
e 3 31
e 3 32
e 3 36
e 3 44
e 3 51
e 3 52
e 3 53
e 3 60
e 3 66
e 3 71
e 3 80
e 3 83
e 3 84
e 3 89
e 3 94
e 4 17
e 4 18
e 4 19
e 4 20
e 4 21
e 4 22
e 4 24
e 4 25
e 4 30
e 4 33
e 4 35
e 4 38
e 4 39
e 4 40
e 4 46
e 4 47
e 4 54
e 4 63
e 4 67
e 4 69
e 4 74
e 4 78
e 4 90
e 4 100
e 5 17
e 5 18
e 5 19
e 5 21
e 5 22
e 5 23
e 5 25
e 5 26
e 5 27
e 5 28
e 5 32
e 5 34
e 5 40
e 5 45
e 5 52
e 5 55
e 5 57
e 5 66
e 5 71
e 5 75
e 5 77
e 5 85
e 5 87
e 5 93
e 5 98
e 6 17
e 6 18
e 6 19
e 6 20
e 6 21
e 6 22
e 6 23
e 6 25
e 6 26
e 6 28
e 6 29
e 6 31
e 6 32
e 6 33
e 6 34
e 6 36
e 6 39
e 6 43
e 6 45
e 6 50
e 6 56
e 6 65
e 6 68
e 6 73
e 6 76
e 6 81
e 6 91
e 6 95
e 7 17
e 7 18
e 7 19
e 7 20
e 7 21
e 7 22
e 7 23
e 7 24
e 7 25
e 7 29
e 7 32
e 7 33
e 7 35
e 7 39
e 7 41
e 7 47
e 7 51
e 7 54
e 7 57
e 7 58
e 7 59
e 7 61
e 7 62
e 7 65
e 7 66
e 7 69
e 7 76
e 7 80
e 7 83
e 7 87
e 7 89
e 7 92
e 7 96
e 8 17
e 8 18
e 8 19
e 8 20
e 8 26
e 8 27
e 8 37
e 8 43
e 8 50
e 8 54
e 8 59
e 8 62
e 8 98
e 8 99
e 8 100
e 9 17
e 9 18
e 9 19
e 9 20
e 9 21
e 9 24
e 9 25
e 9 31
e 9 37
e 9 44
e 9 46
e 9 50
e 9 54
e 9 58
e 9 64
e 9 68
e 9 87
e 9 89
e 9 100
e 10 17
e 10 19
e 10 21
e 10 23
e 10 29
e 10 31
e 10 33
e 10 36
e 10 38
e 10 43
e 10 46
e 10 48
e 10 55
e 10 72
e 10 77
e 10 87
e 11 17
e 11 18
e 11 20
e 11 21
e 11 22
e 11 23
e 11 24
e 11 26
e 11 30
e 11 34
e 11 38
e 11 45
e 11 52
e 11 56
e 11 64
e 11 65
e 11 75
e 12 17
e 12 18
e 12 19
e 12 20
e 12 24
e 12 26
e 12 28
e 12 33
e 12 34
e 12 38
e 12 40
e 12 45
e 12 50
e 12 52
e 12 60
e 12 62
e 12 64
e 12 70
e 12 71
e 12 80
e 12 83
e 12 84
e 12 86
e 12 87
e 12 97
e 12 98
e 13 17
e 13 18
e 13 19
e 13 20
e 13 21
e 13 22
e 13 23
e 13 24
e 13 25
e 13 27
e 13 28
e 13 30
e 13 35
e 13 36
e 13 37
e 13 41
e 13 42
e 13 43
e 13 47
e 13 48
e 13 50
e 13 58
e 13 65
e 13 68
e 13 71
e 13 72
e 13 82
e 13 84
e 14 17
e 14 18
e 14 19
e 14 20
e 14 21
e 14 23
e 14 25
e 14 26
e 14 27
e 14 28
e 14 31
e 14 34
e 14 35
e 14 37
e 14 38
e 14 39
e 14 46
e 14 47
e 14 59
e 14 63
e 14 69
e 14 72
e 14 73
e 14 76
e 14 86
e 14 87
e 15 17
e 15 18
e 15 19
e 15 20
e 15 22
e 15 23
e 15 26
e 15 27
e 15 29
e 15 30
e 15 31
e 15 32
e 15 33
e 15 35
e 15 36
e 15 38
e 15 39
e 15 40
e 15 43
e 15 44
e 15 47
e 15 48
e 15 55
e 15 56
e 15 57
e 15 58
e 15 59
e 15 60
e 15 71
e 15 76
e 15 79
e 15 80
e 15 81
e 15 83
e 15 85
e 15 86
e 15 93
e 15 96
e 15 97
e 16 17
e 16 18
e 16 20
e 16 21
e 16 22
e 16 24
e 16 26
e 16 27
e 16 29
e 16 30
e 16 31
e 16 32
e 16 34
e 16 35
e 16 36
e 16 38
e 16 43
e 16 44
e 16 47
e 16 52
e 16 66
e 16 67
e 16 71
e 16 76
e 16 77
e 16 78
e 16 85
e 16 97
e 17 18
e 17 19
e 17 20
e 17 21
e 17 22
e 17 23
e 17 24
e 17 25
e 17 26
e 17 27
e 17 28
e 17 29
e 17 30
e 17 34
e 17 35
e 17 37
e 17 39
e 17 40
e 17 41
e 17 42
e 17 44
e 17 45
e 17 46
e 17 49
e 17 53
e 17 54
e 17 57
e 17 60
e 17 61
e 17 62
e 17 64
e 17 66
e 17 70
e 17 71
e 17 72
e 17 73
e 17 76
e 17 77
e 17 78
e 17 81
e 17 82
e 17 84
e 17 85
e 17 87
e 17 91
e 17 92
e 17 96
e 17 98
e 18 19
e 18 20
e 18 21
e 18 22
e 18 23
e 18 24
e 18 25
e 18 26
e 18 27
e 18 28
e 18 29
e 18 30
e 18 33
e 18 35
e 18 36
e 18 37
e 18 38
e 18 40
e 18 41
e 18 44
e 18 47
e 18 49
e 18 54
e 18 55
e 18 57
e 18 74
e 18 76
e 18 77
e 18 78
e 18 81
e 18 82
e 18 83
e 18 84
e 18 85
e 18 87
e 18 90
e 18 93
e 18 94
e 19 20
e 19 21
e 19 22
e 19 23
e 19 24
e 19 26
e 19 28
e 19 29
e 19 30
e 19 31
e 19 34
e 19 37
e 19 38
e 19 39
e 19 41
e 19 42
e 19 44
e 19 46
e 19 49
e 19 50
e 19 53
e 19 54
e 19 57
e 19 63
e 19 66
e 19 69
e 19 74
e 19 75
e 19 77
e 19 94
e 19 97
e 19 98
e 19 99
e 20 21
e 20 22
e 20 23
e 20 24
e 20 25
e 20 27
e 20 28
e 20 29
e 20 32
e 20 33
e 20 34
e 20 35
e 20 37
e 20 38
e 20 39
e 20 42
e 20 45
e 20 47
e 20 50
e 20 51
e 20 52
e 20 55
e 20 56
e 20 57
e 20 58
e 20 59
e 20 60
e 20 62
e 20 66
e 20 70
e 20 72
e 20 74
e 20 79
e 20 81
e 20 82
e 20 83
e 20 99
e 20 100
e 21 22
e 21 23
e 21 24
e 21 25
e 21 26
e 21 27
e 21 28
e 21 36
e 21 37
e 21 38
e 21 40
e 21 42
e 21 43
e 21 44
e 21 45
e 21 48
e 21 49
e 21 51
e 21 53
e 21 55
e 21 57
e 21 59
e 21 60
e 21 64
e 21 65
e 21 67
e 21 70
e 21 71
e 21 72
e 21 78
e 21 80
e 21 81
e 21 88
e 21 93
e 21 94
e 21 99
e 22 23
e 22 24
e 22 25
e 22 26
e 22 27
e 22 28
e 22 29
e 22 31
e 22 32
e 22 36
e 22 40
e 22 41
e 22 43
e 22 48
e 22 50
e 22 56
e 22 58
e 22 62
e 22 64
e 22 67
e 22 69
e 22 75
e 22 78
e 22 80
e 22 83
e 22 84
e 22 85
e 22 90
e 22 91
e 22 93
e 22 97
e 23 24
e 23 25
e 23 26
e 23 27
e 23 28
e 23 29
e 23 30
e 23 31
e 23 32
e 23 33
e 23 36
e 23 37
e 23 38
e 23 39
e 23 41
e 23 42
e 23 44
e 23 47
e 23 48
e 23 49
e 23 51
e 23 53
e 23 54
e 23 62
e 23 64
e 23 65
e 23 66
e 23 69
e 23 70
e 23 72
e 23 74
e 23 77
e 23 78
e 23 79
e 23 80
e 23 88
e 23 89
e 23 94
e 23 100
e 24 25
e 24 26
e 24 27
e 24 29
e 24 30
e 24 31
e 24 32
e 24 33
e 24 36
e 24 37
e 24 39
e 24 41
e 24 42
e 24 43
e 24 45
e 24 47
e 24 48
e 24 51
e 24 54
e 24 63
e 24 64
e 24 66
e 24 68
e 24 69
e 24 74
e 24 78
e 24 79
e 24 81
e 24 84
e 24 85
e 24 87
e 24 88
e 24 91
e 24 92
e 24 99
e 24 100
e 25 26
e 25 28
e 25 29
e 25 30
e 25 31
e 25 32
e 25 34
e 25 35
e 25 36
e 25 37
e 25 39
e 25 45
e 25 46
e 25 47
e 25 50
e 25 52
e 25 53
e 25 58
e 25 59
e 25 60
e 25 62
e 25 66
e 25 68
e 25 79
e 25 82
e 25 83
e 25 95
e 25 96
e 26 27
e 26 28
e 26 29
e 26 30
e 26 32
e 26 33
e 26 35
e 26 36
e 26 40
e 26 42
e 26 43
e 26 44
e 26 45
e 26 49
e 26 50
e 26 53
e 26 59
e 26 60
e 26 62
e 26 65
e 26 67
e 26 69
e 26 72
e 26 74
e 26 80
e 26 82
e 26 84
e 26 88
e 26 89
e 26 90
e 26 91
e 26 96
e 27 28
e 27 31
e 27 32
e 27 35
e 27 38
e 27 40
e 27 42
e 27 44
e 27 48
e 27 52
e 27 54
e 27 55
e 27 56
e 27 57
e 27 58
e 27 61
e 27 68
e 27 69
e 27 73
e 27 75
e 27 79
e 27 86
e 27 87
e 27 88
e 27 94
e 27 95
e 28 30
e 28 32
e 28 34
e 28 36
e 28 38
e 28 40
e 28 41
e 28 42
e 28 45
e 28 49
e 28 50
e 28 52
e 28 53
e 28 55
e 28 57
e 28 61
e 28 62
e 28 63
e 28 64
e 28 70
e 28 71
e 28 79
e 28 82
e 28 84
e 28 87
e 28 92
e 28 97
e 29 30
e 29 31
e 29 33
e 29 35
e 29 40
e 29 42
e 29 45
e 29 46
e 29 49
e 29 54
e 29 57
e 29 81
e 29 88
e 29 89
e 29 90
e 29 93
e 29 94
e 30 32
e 30 33
e 30 35
e 30 37
e 30 39
e 30 41
e 30 47
e 30 49
e 30 50
e 30 51
e 30 58
e 30 61
e 30 62
e 30 68
e 30 72
e 30 75
e 30 86
e 30 93
e 30 94
e 30 95
e 30 98
e 31 33
e 31 34
e 31 36
e 31 40
e 31 41
e 31 43
e 31 46
e 31 48
e 31 50
e 31 51
e 31 59
e 31 67
e 31 68
e 31 73
e 31 74
e 31 78
e 31 82
e 31 83
e 31 84
e 31 89
e 32 33
e 32 34
e 32 35
e 32 37
e 32 38
e 32 39
e 32 40
e 32 42
e 32 43
e 32 47
e 32 49
e 32 50
e 32 51
e 32 53
e 32 58
e 32 61
e 32 62
e 32 63
e 32 65
e 32 67
e 32 68
e 32 70
e 32 71
e 32 74
e 32 77
e 32 79
e 32 84
e 32 86
e 32 88
e 32 92
e 32 94
e 32 95
e 32 99
e 33 34
e 33 37
e 33 40
e 33 41
e 33 42
e 33 43
e 33 46
e 33 47
e 33 49
e 33 51
e 33 53
e 33 54
e 33 57
e 33 60
e 33 70
e 33 73
e 33 79
e 33 85
e 33 96
e 34 44
e 34 46
e 34 48
e 34 52
e 34 53
e 34 55
e 34 56
e 34 59
e 34 72
e 34 76
e 34 91
e 34 92
e 34 95
e 34 97
e 35 36
e 35 37
e 35 38
e 35 41
e 35 44
e 35 45
e 35 49
e 35 56
e 35 58
e 35 59
e 35 61
e 35 64
e 35 66
e 35 68
e 35 70
e 35 76
e 35 81
e 35 82
e 35 84
e 35 86
e 35 95
e 35 96
e 35 98
e 36 39
e 36 42
e 36 46
e 36 48
e 36 50
e 36 57
e 36 61
e 36 63
e 36 69
e 36 72
e 36 76
e 36 79
e 36 93
e 37 39
e 37 42
e 37 44
e 37 45
e 37 51
e 37 52
e 37 53
e 37 55
e 37 58
e 37 63
e 37 65
e 37 67
e 37 72
e 37 74
e 37 82
e 37 86
e 37 88
e 37 89
e 37 93
e 37 94
e 37 98
e 38 39
e 38 41
e 38 45
e 38 55
e 38 56
e 38 59
e 38 60
e 38 61
e 38 64
e 38 70
e 38 83
e 38 86
e 38 92
e 38 98
e 39 41
e 39 42
e 39 46
e 39 53
e 39 55
e 39 65
e 39 67
e 39 69
e 39 71
e 39 75
e 39 77
e 39 78
e 39 85
e 39 87
e 39 94
e 40 41
e 40 43
e 40 48
e 40 49
e 40 58
e 40 60
e 40 66
e 40 67
e 40 74
e 40 82
e 40 88
e 40 89
e 40 94
e 40 97
e 41 43
e 41 44
e 41 48
e 41 49
e 41 51
e 41 59
e 41 64
e 41 65
e 41 66
e 41 67
e 41 73
e 41 75
e 41 78
e 41 79
e 41 81
e 41 83
e 41 85
e 41 86
e 41 87
e 41 90
e 41 96
e 41 97
e 41 99
e 41 100
e 42 43
e 42 47
e 42 48
e 42 53
e 42 56
e 42 64
e 42 66
e 42 73
e 42 74
e 42 76
e 42 78
e 42 79
e 42 85
e 42 91
e 42 95
e 43 46
e 43 48
e 43 51
e 43 58
e 43 61
e 43 65
e 43 67
e 43 69
e 43 71
e 43 73
e 43 76
e 43 78
e 43 89
e 43 96
e 43 97
e 44 45
e 44 49
e 44 52
e 44 54
e 44 55
e 44 63
e 44 71
e 44 72
e 44 78
e 44 91
e 44 94
e 44 99
e 44 100
e 45 46
e 45 47
e 45 50
e 45 52
e 45 57
e 45 59
e 45 67
e 45 68
e 45 77
e 45 78
e 45 83
e 45 88
e 45 89
e 45 95
e 45 96
e 46 52
e 46 54
e 46 55
e 46 56
e 46 60
e 46 61
e 46 63
e 46 66
e 46 67
e 46 72
e 46 75
e 46 80
e 46 89
e 46 92
e 47 48
e 47 49
e 47 54
e 47 56
e 47 57
e 47 61
e 47 73
e 47 74
e 47 80
e 47 84
e 47 90
e 47 99
e 48 51
e 48 52
e 48 56
e 48 63
e 48 68
e 48 70
e 48 73
e 48 75
e 48 97
e 49 51
e 49 53
e 49 56
e 49 59
e 49 60
e 49 61
e 49 63
e 49 70
e 49 79
e 49 81
e 49 82
e 49 84
e 49 90
e 49 96
e 49 98
e 50 52
e 50 53
e 50 54
e 50 55
e 50 59
e 50 60
e 50 62
e 50 63
e 50 67
e 50 68
e 50 69
e 50 70
e 50 74
e 50 75
e 50 82
e 50 89
e 50 93
e 50 97
e 51 56
e 51 76
e 52 56
e 52 65
e 52 72
e 52 74
e 52 76
e 52 94
e 52 95
e 52 98
e 53 60
e 53 62
e 53 69
e 53 71
e 54 55
e 54 58
e 54 62
e 54 63
e 54 75
e 54 77
e 54 79
e 54 90
e 54 93
e 55 61
e 55 76
e 55 87
e 55 90
e 55 91
e 55 98
e 56 57
e 56 68
e 56 69
e 56 90
e 56 91
e 56 93
e 56 95
e 56 96
e 57 60
e 57 73
e 57 91
e 57 93
e 57 95
e 58 61
e 58 63
e 58 65
e 58 70
e 58 77
e 58 86
e 58 88
e 58 89
e 58 90
e 59 65
e 59 68
e 59 79
e 59 81
e 59 85
e 59 86
e 59 87
e 59 92
e 59 96
e 59 97
e 59 98
e 60 61
e 60 64
e 60 66
e 60 70
e 60 71
e 60 72
e 60 73
e 60 74
e 60 83
e 60 85
e 60 95
e 61 64
e 61 77
e 61 78
e 61 82
e 61 85
e 61 99
e 62 65
e 62 73
e 62 90
e 62 92
e 62 94
e 63 64
e 63 73
e 63 79
e 64 67
e 64 69
e 64 88
e 64 94
e 64 100
e 65 80
e 65 92
e 65 93
e 65 95
e 65 100
e 66 80
e 67 68
e 67 83
e 67 86
e 67 96
e 67 100
e 68 82
e 69 88
e 69 89
e 69 99
e 70 85
e 70 90
e 70 91
e 70 92
e 71 75
e 71 81
e 71 85
e 72 77
e 72 100
e 73 75
e 73 77
e 73 80
e 73 81
e 73 88
e 73 100
e 74 75
e 74 99
e 75 80
e 75 83
e 75 98
e 76 81
e 76 83
e 76 86
e 76 90
e 77 87
e 78 88
e 78 91
e 79 80
e 79 84
e 79 91
e 79 93
e 79 100
e 80 84
e 80 90
e 80 91
e 80 92
e 80 93
e 80 97
e 80 98
e 80 99
e 83 86
e 83 92
e 84 97
e 85 95
e 86 89
e 86 95
e 86 99
e 87 91
e 87 99
e 88 97
e 90 92
e 90 98
e 91 92
e 91 99
e 92 96
e 92 100
e 95 100
